QBPP_HJ-_45_025_06_2
45 361 63
22 13 6 49 24 29 33 19 47 38 19 11 40 32 37 3 48 13 2 50 24 6 42 25 16 7 11 12 35 49 27 36 47 13 27 1 2 22 43 23 9 25 3 16 25
     0     0     0   -42     0     0     0     0   -64     0     0     0     0     0     0   -10     0     0   -17   -35     0     0     0     0     0     0   -84     0     0     0     0     0     0     0     0     0     0    -7     0     0   -29   -79   -22   -40   -50
     0     0     0     0     0     0     0     0     0     0   -18     0     0     0     0    -1   -11   -26   -11     0   -46     0   -89     0   -45     0     0     0     0     0   -25     0   -58   -36     0     0     0     0     0     0     0   -98   -64     0     0
     0     0     0     0   -11     0     0     0     0     0     0     0     0     0     0     0     0     0   -39   -95     0     0     0   -60     0     0   -75     0     0     0   -83     0     0   -32     0     0   -29     0   -98     0     0     0   -61     0     0
   -42     0     0     0     0     0     0     0     0   -50     0     0   -54     0     0   -56     0     0   -39     0     0     0     0    -5     0     0   -18     0   -68     0     0   -17     0     0     0     0   -32     0   -96     0   -19     0     0     0     0
     0     0   -11     0     0     0     0   -99   -49     0     0   -97     0     0   -74   -82   -34     0     0     0     0     0     0     0    -1   -31     0   -16     0     0     0     0     0   -27     0     0     0   -67     0     0     0     0     0     0     0
     0     0     0     0     0     0     0     0   -87    -9     0     0     0     0     0   -51   -14     0     0   -14     0     0     0     0     0     0     0     0     0   -55     0     0     0   -53     0     0     0     0     0     0   -51     0   -68     0     0
     0     0     0     0     0     0     0     0   -90     0     0     0     0     0     0     0     0     0     0     0     0     0    -4     0     0     0     0     0     0   -32   -21     0     0     0     0     0   -70     0     0     0     0     0     0     0     0
     0     0     0     0   -99     0     0     0     0   -25     0     0   -47   -99     0   -28     0     0     0     0     0   -45     0     0     0     0     0     0     0   -69     0   -80     0     0     0     0    -3     0   -90     0     0     0     0     0     0
   -64     0     0     0   -49   -87   -90     0     0     0     0     0     0     0   -92     0     0     0   -30     0     0     0     0     0   -29     0     0     0     0     0   -83     0     0     0     0   -73     0     0     0     0     0     0     0     0   -56
     0     0     0   -50     0    -9     0   -25     0     0     0   -26     0     0     0   -69     0   -26     0     0     0   -77     0     0     0     0   -42     0     0     0     0     0     0   -10     0   -89     0     0     0   -80     0     0     0     0     0
     0   -18     0     0     0     0     0     0     0     0     0   -80   -44   -78   -34     0     0   -76     0   -75   -36   -73     0   -63   -37     0     0   -15     0     0    -7     0     0     0     0   -26     0     0     0     0     0    -7     0     0     0
     0     0     0     0   -97     0     0     0     0   -26   -80     0     0     0     0     0     0   -30     0   -89     0     0     0     0     0     0     0     0     0     0     0     0     0   -57     0     0     0     0     0     0     0     0   -56     0     0
     0     0     0   -54     0     0     0   -47     0     0   -44     0     0     0     0     0     0     0     0     0   -96     0     0     0   -66     0     0     0     0     0     0   -22     0     0   -21     0     0     0   -39     0   -72   -10     0     0   -63
     0     0     0     0     0     0     0   -99     0     0   -78     0     0     0   -64     0     0     0     0     0     0     0     0     0     0     0     0     0     0     0     0     0   -21     0   -58   -63     0   -95     0     0     0   -36   -55     0     0
     0     0     0     0   -74     0     0     0   -92     0   -34     0     0   -64     0     0     0   -42   -86     0     0   -63     0     0     0     0   -98     0     0     0     0     0   -16   -21     0   -99     0     0     0     0   -91     0     0     0    -4
   -10    -1     0   -56   -82   -51     0   -28     0   -69     0     0     0     0     0     0     0     0     0     0     0     0   -85   -47     0   -14     0     0   -26     0     0     0     0   -80     0   -98   -23     0     0   -82     0     0   -96     0     0
     0   -11     0     0   -34   -14     0     0     0     0     0     0     0     0     0     0     0     0     0     0     0   -83     0     0   -54     0   -92     0     0     0     0     0   -96     0  -100     0   -24     0    -2     0     0     0     0     0   -55
     0   -26     0     0     0     0     0     0     0   -26   -76   -30     0     0   -42     0     0     0     0     0     0    -8     0     0    -5     0     0   -42     0   -20     0   -32     0     0     0     0   -92     0     0     0     0     0     0     0     0
   -17   -11   -39   -39     0     0     0     0   -30     0     0     0     0     0   -86     0     0     0     0     0   -20     0   -47     0   -75     0   -81     0     0     0   -11     0     0     0     0     0     0     0   -25     0     0     0     0     0     0
   -35     0   -95     0     0   -14     0     0     0     0   -75   -89     0     0     0     0     0     0     0     0     0   -10   -80     0     0   -90     0     0   -34     0     0     0     0     0   -34     0     0   -48     0  -100   -62   -37     0   -93     0
     0   -46     0     0     0     0     0     0     0     0   -36     0   -96     0     0     0     0     0   -20     0     0     0     0     0   -19   -57   -55     0     0     0   -27     0   -38     0   -56   -55     0     0   -94     0     0     0     0     0   -13
     0     0     0     0     0     0     0   -45     0   -77   -73     0     0     0   -63     0   -83    -8     0   -10     0     0     0     0     0     0   -92     0    -4     0     0   -42   -34     0     0     0     0     0    -5   -11   -75   -27     0     0     0
     0   -89     0     0     0     0    -4     0     0     0     0     0     0     0     0   -85     0     0   -47   -80     0     0     0     0     0     0     0     0   -52     0     0   -18     0   -11     0     0   -28     0     0     0   -64     0   -54     0     0
     0     0   -60    -5     0     0     0     0     0     0   -63     0     0     0     0   -47     0     0     0     0     0     0     0     0     0     0   -78   -22     0     0     0     0     0     0   -60     0     0     0     0     0   -26     0     0     0     0
     0   -45     0     0    -1     0     0     0   -29     0   -37     0   -66     0     0     0   -54    -5   -75     0   -19     0     0     0     0   -31     0     0   -88     0     0     0   -13     0     0     0     0   -41     0     0     0     0     0   -96   -23
     0     0     0     0   -31     0     0     0     0     0     0     0     0     0     0   -14     0     0     0   -90   -57     0     0     0   -31     0     0     0     0    -8     0     0     0     0     0     0   -99   -50   -97     0   -61   -91   -83     0     0
   -84     0   -75   -18     0     0     0     0     0   -42     0     0     0     0   -98     0   -92     0   -81     0   -55   -92     0   -78     0     0     0     0     0     0     0     0     0     0     0     0     0     0     0     0   -69     0     0   -77   -23
     0     0     0     0   -16     0     0     0     0     0   -15     0     0     0     0     0     0   -42     0     0     0     0     0   -22     0     0     0     0     0     0   -65     0     0     0   -55     0     0     0     0     0     0     0   -65     0     0
     0     0     0   -68     0     0     0     0     0     0     0     0     0     0     0   -26     0     0     0   -34     0    -4   -52     0   -88     0     0     0     0     0     0   -92   -91     0   -95     0     0   -17     0     0     0     0   -46     0   -34
     0     0     0     0     0   -55   -32   -69     0     0     0     0     0     0     0     0     0   -20     0     0     0     0     0     0     0    -8     0     0     0     0     0     0     0     0     0     0     0     0   -27     0     0     0   -40   -69     0
     0   -25   -83     0     0     0   -21     0   -83     0    -7     0     0     0     0     0     0     0   -11     0   -27     0     0     0     0     0     0   -65     0     0     0   -47     0     0  -100     0     0     0     0     0     0     0     0     0     0
     0     0     0   -17     0     0     0   -80     0     0     0     0   -22     0     0     0     0   -32     0     0     0   -42   -18     0     0     0     0     0   -92     0   -47     0     0     0     0     0   -35     0     0     0   -41     0     0     0     0
     0   -58     0     0     0     0     0     0     0     0     0     0     0   -21   -16     0   -96     0     0     0   -38   -34     0     0   -13     0     0     0   -91     0     0     0     0     0     0     0     0     0     0     0   -39   -17   -12   -19   -88
     0   -36   -32     0   -27   -53     0     0     0   -10     0   -57     0     0   -21   -80     0     0     0     0     0     0   -11     0     0     0     0     0     0     0     0     0     0     0   -82     0   -22     0     0   -89   -51     0     0     0     0
     0     0     0     0     0     0     0     0     0     0     0     0   -21   -58     0     0  -100     0     0   -34   -56     0     0   -60     0     0     0   -55   -95     0  -100     0     0   -82     0     0     0     0     0     0     0     0     0     0   -52
     0     0     0     0     0     0     0     0   -73   -89   -26     0     0   -63   -99   -98     0     0     0     0   -55     0     0     0     0     0     0     0     0     0     0     0     0     0     0     0   -76     0     0    -2     0     0     0     0     0
     0     0   -29   -32     0     0   -70    -3     0     0     0     0     0     0     0   -23   -24   -92     0     0     0     0   -28     0     0   -99     0     0     0     0     0   -35     0   -22     0   -76     0     0     0     0     0     0     0     0     0
    -7     0     0     0   -67     0     0     0     0     0     0     0     0   -95     0     0     0     0     0   -48     0     0     0     0   -41   -50     0     0   -17     0     0     0     0     0     0     0     0     0     0     0     0     0     0     0     0
     0     0   -98   -96     0     0     0   -90     0     0     0     0   -39     0     0     0    -2     0   -25     0   -94    -5     0     0     0   -97     0     0     0   -27     0     0     0     0     0     0     0     0     0     0     0     0     0   -54     0
     0     0     0     0     0     0     0     0     0   -80     0     0     0     0     0   -82     0     0     0  -100     0   -11     0     0     0     0     0     0     0     0     0     0     0   -89     0    -2     0     0     0     0     0     0     0     0     0
   -29     0     0   -19     0   -51     0     0     0     0     0     0   -72     0   -91     0     0     0     0   -62     0   -75   -64   -26     0   -61   -69     0     0     0     0   -41   -39   -51     0     0     0     0     0     0     0     0   -95     0     0
   -79   -98     0     0     0     0     0     0     0     0    -7     0   -10   -36     0     0     0     0     0   -37     0   -27     0     0     0   -91     0     0     0     0     0     0   -17     0     0     0     0     0     0     0     0     0     0     0     0
   -22   -64   -61     0     0   -68     0     0     0     0     0   -56     0   -55     0   -96     0     0     0     0     0     0   -54     0     0   -83     0   -65   -46   -40     0     0   -12     0     0     0     0     0     0     0   -95     0     0     0     0
   -40     0     0     0     0     0     0     0     0     0     0     0     0     0     0     0     0     0     0   -93     0     0     0     0   -96     0   -77     0     0   -69     0     0   -19     0     0     0     0     0   -54     0     0     0     0     0     0
   -50     0     0     0     0     0     0     0   -56     0     0     0   -63     0    -4     0   -55     0     0     0   -13     0     0     0   -23     0   -23     0   -34     0     0     0   -88     0   -52     0     0     0     0     0     0     0     0     0     0
